c 
c G(n,p) graph
c graph gen seed     : 45918
c number of vertices : 70
c max number of edges: 2415
c edge probability   : 0.200000
c data structure     : sparse
c
c           Graph Stats
c number of vertices  : 70
c nonisolated vertices: 70
c number of edges     : 514
c edge density        : 0.212836
c max degree          : 23
c avg degree          : 14.69
c min degree          : 8
p col 70 514
e 1 70
e 1 58
e 1 46
e 1 45
e 1 44
e 1 33
e 1 30
e 1 12
e 1 9
e 1 7
e 1 2
e 2 68
e 2 63
e 2 59
e 2 42
e 2 41
e 2 40
e 2 37
e 2 27
e 2 19
e 2 17
e 2 15
e 2 10
e 2 8
e 2 6
e 3 62
e 3 60
e 3 55
e 3 52
e 3 48
e 3 39
e 3 31
e 3 18
e 3 14
e 3 13
e 3 12
e 3 6
e 3 4
e 4 66
e 4 65
e 4 61
e 4 58
e 4 53
e 4 46
e 4 42
e 4 40
e 4 31
e 4 29
e 4 26
e 4 23
e 4 21
e 4 19
e 4 15
e 4 8
e 5 65
e 5 62
e 5 58
e 5 46
e 5 41
e 5 37
e 5 22
e 5 18
e 6 66
e 6 64
e 6 62
e 6 61
e 6 50
e 6 49
e 6 43
e 6 42
e 6 39
e 6 37
e 6 22
e 6 21
e 6 18
e 6 14
e 6 7
e 7 68
e 7 63
e 7 55
e 7 44
e 7 39
e 7 38
e 7 24
e 7 16
e 7 8
e 8 70
e 8 65
e 8 63
e 8 55
e 8 45
e 8 40
e 8 35
e 8 31
e 8 28
e 8 25
e 8 22
e 8 21
e 8 13
e 9 70
e 9 69
e 9 50
e 9 46
e 9 43
e 9 42
e 9 40
e 9 31
e 9 24
e 9 21
e 9 19
e 9 18
e 9 14
e 10 68
e 10 60
e 10 58
e 10 56
e 10 52
e 10 50
e 10 45
e 10 33
e 10 26
e 10 25
e 10 16
e 10 15
e 10 12
e 11 68
e 11 66
e 11 64
e 11 53
e 11 46
e 11 44
e 11 33
e 11 32
e 11 31
e 11 28
e 11 23
e 11 22
e 11 15
e 11 14
e 11 12
e 12 64
e 12 59
e 12 48
e 12 45
e 12 38
e 12 33
e 12 32
e 12 26
e 12 25
e 12 24
e 13 59
e 13 58
e 13 57
e 13 41
e 13 30
e 13 22
e 13 21
e 13 18
e 14 69
e 14 67
e 14 65
e 14 59
e 14 52
e 14 29
e 14 24
e 14 22
e 15 68
e 15 60
e 15 58
e 15 57
e 15 44
e 15 41
e 15 40
e 15 38
e 15 32
e 15 30
e 15 28
e 16 57
e 16 53
e 16 48
e 16 40
e 16 28
e 16 23
e 16 20
e 16 19
e 17 64
e 17 60
e 17 52
e 17 51
e 17 45
e 17 43
e 17 42
e 17 40
e 17 28
e 17 25
e 17 24
e 17 21
e 17 20
e 18 68
e 18 66
e 18 65
e 18 60
e 18 59
e 18 44
e 18 38
e 18 33
e 18 30
e 18 27
e 18 25
e 18 20
e 19 70
e 19 67
e 19 65
e 19 63
e 19 60
e 19 58
e 19 48
e 19 47
e 19 38
e 19 37
e 19 35
e 19 33
e 19 32
e 19 27
e 19 26
e 19 23
e 20 68
e 20 66
e 20 61
e 20 56
e 20 54
e 20 47
e 20 45
e 20 42
e 20 41
e 20 38
e 20 34
e 20 25
e 20 24
e 20 23
e 20 21
e 21 54
e 21 50
e 21 46
e 21 41
e 21 40
e 21 33
e 22 69
e 22 64
e 22 53
e 22 46
e 22 45
e 22 37
e 22 36
e 22 32
e 22 27
e 22 24
e 23 70
e 23 66
e 23 61
e 23 58
e 23 57
e 23 56
e 23 52
e 23 50
e 23 44
e 23 43
e 23 39
e 23 31
e 23 28
e 24 69
e 24 67
e 24 62
e 24 60
e 24 52
e 24 46
e 24 38
e 24 32
e 24 25
e 25 68
e 25 58
e 25 55
e 25 54
e 25 45
e 25 41
e 25 40
e 25 33
e 25 26
e 26 56
e 26 52
e 26 50
e 26 47
e 26 43
e 26 41
e 26 40
e 26 37
e 26 31
e 26 30
e 26 27
e 27 66
e 27 64
e 27 62
e 27 60
e 27 56
e 27 53
e 27 47
e 27 39
e 27 36
e 28 68
e 28 54
e 28 51
e 28 46
e 28 32
e 29 69
e 29 68
e 29 66
e 29 65
e 29 60
e 29 59
e 29 56
e 29 54
e 29 53
e 29 50
e 29 46
e 29 45
e 29 42
e 29 36
e 29 35
e 30 70
e 30 67
e 30 64
e 30 59
e 30 54
e 30 53
e 30 50
e 30 48
e 30 42
e 30 41
e 30 39
e 30 35
e 30 32
e 31 60
e 31 51
e 31 50
e 31 39
e 31 38
e 31 36
e 32 68
e 32 59
e 32 52
e 32 45
e 32 38
e 32 35
e 33 68
e 33 66
e 33 54
e 33 53
e 33 48
e 33 43
e 33 42
e 33 40
e 34 59
e 34 58
e 34 56
e 34 52
e 34 48
e 34 44
e 34 41
e 34 38
e 34 36
e 35 69
e 35 68
e 35 67
e 35 62
e 35 59
e 35 58
e 35 48
e 35 44
e 35 43
e 35 37
e 36 63
e 36 59
e 36 49
e 36 41
e 36 40
e 37 70
e 37 68
e 37 63
e 37 59
e 37 57
e 37 51
e 37 50
e 37 43
e 38 67
e 38 64
e 38 62
e 38 59
e 38 57
e 38 53
e 38 52
e 38 49
e 38 46
e 39 63
e 39 58
e 39 48
e 40 67
e 40 65
e 40 64
e 40 60
e 40 57
e 40 46
e 40 44
e 41 68
e 41 59
e 41 56
e 41 53
e 41 49
e 41 46
e 41 45
e 42 68
e 42 63
e 42 62
e 42 61
e 42 57
e 42 45
e 43 67
e 43 66
e 43 65
e 43 57
e 43 53
e 43 49
e 44 70
e 44 68
e 44 67
e 44 65
e 44 58
e 44 57
e 44 54
e 44 47
e 45 59
e 45 56
e 45 54
e 45 53
e 45 48
e 46 66
e 46 62
e 46 61
e 46 52
e 46 49
e 47 69
e 47 54
e 47 50
e 47 48
e 48 63
e 48 53
e 48 52
e 49 70
e 49 67
e 49 62
e 49 61
e 49 58
e 49 56
e 49 52
e 50 68
e 50 66
e 50 64
e 50 63
e 50 62
e 50 53
e 51 65
e 51 59
e 51 57
e 51 56
e 52 70
e 52 63
e 52 62
e 52 54
e 53 70
e 53 66
e 53 60
e 53 56
e 54 69
e 54 68
e 54 61
e 54 55
e 55 70
e 55 65
e 55 63
e 55 58
e 56 70
e 56 68
e 56 65
e 57 65
e 57 59
e 58 69
e 59 70
e 59 64
e 59 63
e 59 60
e 60 63
e 61 69
e 61 67
e 61 66
e 61 64
e 62 70
e 62 66
e 62 64
e 63 68
e 63 67
e 65 69
e 65 68
e 65 67
e 66 69
e 68 69
